Set parameter TokenServer to value "opt-license.discovery.wisc.edu"
Set parameter TimeLimit to value 600
Gurobi Optimizer version 9.5.1 build v9.5.1rc2 (linux64)
Thread count: 40 physical cores, 80 logical processors, using up to 32 threads
Optimize a model with 5041 rows, 4900 columns and 19530 nonzeros
Model fingerprint: 0x1a9aac11
Variable types: 0 continuous, 4900 integer (4900 binary)
Coefficient statistics:
  Matrix range     [1e+00, 3e+03]
  Objective range  [1e+00, 1e+01]
  Bounds range     [1e+00, 1e+00]
  RHS range        [1e+00, 4e+00]
Found heuristic solution: objective 355.4029246
Presolve removed 70 rows and 0 columns
Presolve time: 0.09s
Presolved: 4971 rows, 4900 columns, 19530 nonzeros
Variable types: 0 continuous, 4900 integer (4900 binary)
Found heuristic solution: objective 336.8496103

Root relaxation: objective 1.148896e+02, 1797 iterations, 0.11 seconds (0.07 work units)

    Nodes    |    Current Node    |     Objective Bounds      |     Work
 Expl Unexpl |  Obj  Depth IntInf | Incumbent    BestBd   Gap | It/Node Time

     0     0  114.88961    0   42  336.84961  114.88961  65.9%     -    0s
H    0     0                     115.5886947  114.88961  0.60%     -    0s
H    0     0                     115.4396092  114.88961  0.48%     -    0s
     0     0  114.88961    0   44  115.43961  114.88961  0.48%     -    0s
     0     0  114.94056    0   15  115.43961  114.94056  0.43%     -    0s
     0     0  115.43961    0   15  115.43961  115.43961  0.00%     -    0s

Cutting planes:
  Gomory: 2
  Cover: 1
  Clique: 1
  MIR: 2
  StrongCG: 1
  GUB cover: 1
  Mod-K: 1
  RLT: 2

Explored 1 nodes (1930 simplex iterations) in 0.47 seconds (0.22 work units)
Thread count was 32 (of 80 available processors)

Solution count 4: 115.44 115.589 336.85 355.403 

Optimal solution found (tolerance 1.00e-04)
Best objective 1.154396091977e+02, best bound 1.154396091977e+02, gap 0.0000%
